
List of user-set options:

                                    Name   Value                used
                           compl_inf_tol = 1                     yes
                         constr_viol_tol = 1                     yes
                            dual_inf_tol = 1000                  yes
                           linear_solver = ma97                  yes
                              ma86_small = 1e-30                  no
                                  ma86_u = 0.0001                 no
                              ma97_order = best                  yes
                              ma97_small = 1e-30                 yes
                            ma97_switch1 = at_start              yes
                            ma97_switch2 = od_hd_reuse           yes
                                  ma97_u = 1e-06                 yes
                               ma97_umax = 0.5                   yes
                                max_iter = 2000                  yes
                    max_refinement_steps = 20                    yes
                    min_refinement_steps = 5                     yes
                                 mu_init = 1e-06                 yes
           mu_superlinear_decrease_power = 1.25                  yes
                   nlp_scaling_min_value = 1e-08                 yes
                        option_file_name = Preset_Case:_104_NCP.opt  yes
                             output_file = ./tmp/Preset_Case:_104_NCP.output  yes
                      print_user_options = yes                   yes
        required_infeasibility_reduction = 1                      no
                                     tol = 1e-08                 yes
                   warm_start_bound_frac = 1e-20                 yes
                   warm_start_bound_push = 1e-20                 yes
                   warm_start_init_point = yes                   yes
              warm_start_mult_bound_push = 1e-20                 yes
                warm_start_mult_init_max = 1e+40                 yes
             warm_start_slack_bound_frac = 1e-20                 yes
             warm_start_slack_bound_push = 1e-20                 yes

******************************************************************************
This program contains Ipopt, a library for large-scale nonlinear optimization.
 Ipopt is released as open source code under the Eclipse Public License (EPL).
         For more information visit http://projects.coin-or.org/Ipopt
******************************************************************************

This is Ipopt version 3.12.10, running with linear solver ma97.

Number of nonzeros in equality constraint Jacobian...:   117140
Number of nonzeros in inequality constraint Jacobian.:      213
Number of nonzeros in Lagrangian Hessian.............:    47462

Total number of variables............................:    29971
                     variables with only lower bounds:    11312
                variables with lower and upper bounds:    15132
                     variables with only upper bounds:        0
Total number of equality constraints.................:    29864
Total number of inequality constraints...............:       25
        inequality constraints with only lower bounds:        4
   inequality constraints with lower and upper bounds:        0
        inequality constraints with only upper bounds:       21

iter    objective    inf_pr   inf_du lg(mu)  ||d||  lg(rg) alpha_du alpha_pr  ls
   0 -4.1573557e-02 1.14e-01 1.25e+02  -6.0 0.00e+00    -  0.00e+00 0.00e+00   0
In iteration 0, 2 Slacks too small, adjusting variable bounds
   1 -4.1573557e-02 1.14e-01 8.28e+03  -6.0 7.78e+05  -2.0 1.20e-08 1.60e-15f  1
   2 -4.1573561e-02 1.14e-01 8.28e+03  -6.0 1.83e+03  -2.5 4.59e-05 1.37e-07f  1
   3 -4.1578958e-02 1.14e-01 8.28e+03  -6.0 1.83e+03  -3.0 2.99e-05 2.38e-04f  1
   4 -4.1611418e-02 1.13e-01 8.28e+03  -6.0 1.83e+03  -3.4 1.66e-04 1.16e-03f  1
   5 -4.1614908e-02 1.13e-01 8.27e+03  -6.0 1.81e+03  -3.0 1.24e-03 1.21e-04f  1
   6 -4.1647660e-02 1.13e-01 8.27e+03  -6.0 1.81e+03  -3.5 3.46e-04 1.24e-03f  1
   7 -4.1718639e-02 1.13e-01 8.24e+03  -6.0 1.79e+03  -3.1 3.22e-03 2.55e-03f  1
   8 -4.1797632e-02 1.12e-01 8.24e+03  -6.0 1.74e+03  -3.5 7.28e-04 4.05e-03f  1
   9 -4.1914104e-02 1.12e-01 9.22e+03  -6.0 1.59e+03  -3.1 1.87e-03 5.44e-03f  1
iter    objective    inf_pr   inf_du lg(mu)  ||d||  lg(rg) alpha_du alpha_pr  ls
  10r-4.1914104e-02 1.12e-01 1.00e+03  -1.0 0.00e+00  -3.6 0.00e+00 3.53e-09R  2
  11r-4.1931074e-02 1.12e-01 1.12e+03  -1.0 2.77e+04    -  3.95e-07 1.59e-07f  1
  12r-4.1931074e-02 1.12e-01 9.99e+02  -1.0 0.00e+00    -  0.00e+00 9.33e-08R  2
  13r-4.1934744e-02 1.12e-01 9.99e+02  -1.0 3.94e+03    -  2.28e-06 2.29e-07f  1
  14r-4.1955215e-02 1.12e-01 9.99e+02  -1.0 5.09e+03    -  1.94e-06 3.14e-06f  1
  15r-4.2021728e-02 1.12e-01 9.99e+02  -1.0 2.60e+03    -  1.15e-05 1.55e-05f  1
  16r-4.2055459e-02 1.12e-01 9.99e+02  -1.0 2.25e+03    -  4.69e-05 2.74e-05f  1
  17 -4.2055941e-02 1.12e-01 2.81e+05  -6.0 3.85e+02    -  5.67e-03 3.57e-04h  1
  18 -4.2077001e-02 1.11e-01 4.57e+06  -6.0 4.31e+02    -  3.59e-04 5.51e-03h  1
  19r-4.2077001e-02 1.11e-01 9.99e+02  -1.0 0.00e+00    -  0.00e+00 4.13e-09R  2
iter    objective    inf_pr   inf_du lg(mu)  ||d||  lg(rg) alpha_du alpha_pr  ls
  20r-4.2077565e-02 1.11e-01 1.13e+03  -1.0 1.48e+04    -  1.50e-07 3.80e-07f  1
  21 -4.2078199e-02 1.11e-01 1.01e+06  -6.0 4.34e+02    -  1.03e-02 3.53e-04h  1
  22 -4.2081223e-02 1.11e-01 3.53e+06  -6.0 4.28e+02    -  3.55e-04 1.21e-03h  1
  23 -4.2100822e-02 1.10e-01 3.50e+06  -6.0 5.08e+02    -  4.45e-02 9.25e-03h  2
  24 -4.2090729e-02 1.09e-01 3.48e+06  -6.0 4.84e+02    -  1.12e-02 7.01e-03h  2
  25 -4.2064365e-02 1.08e-01 3.45e+06  -6.0 4.78e+02    -  3.63e-02 7.11e-03h  1
  26r-4.2064365e-02 1.08e-01 9.99e+02  -1.0 0.00e+00    -  0.00e+00 4.20e-07R  5
  27r-4.2065543e-02 1.08e-01 1.59e+03  -1.0 2.06e+03    -  9.57e-05 8.28e-07f  1
  28r-4.2065543e-02 1.08e-01 9.99e+02  -1.0 0.00e+00    -  0.00e+00 4.08e-07R  3
  29r-4.2065689e-02 1.08e-01 1.74e+03  -1.0 2.11e+03    -  9.65e-05 1.13e-07f  1
iter    objective    inf_pr   inf_du lg(mu)  ||d||  lg(rg) alpha_du alpha_pr  ls
  30 -4.2065656e-02 1.08e-01 2.13e+06  -6.0 4.21e+02    -  3.38e-02 1.41e-05h  1
  31 -4.2062015e-02 1.08e-01 8.26e+07  -6.0 1.70e+03    -  1.57e-05 6.10e-04h  1
  32 -4.2054707e-02 1.08e-01 8.25e+07  -6.0 1.68e+03    -  7.03e-03 1.34e-03h  1
  33 -4.2046172e-02 1.08e-01 8.23e+07  -6.0 1.67e+03    -  2.15e-03 1.41e-03h  4
  34 -4.2033948e-02 1.08e-01 8.22e+07  -6.0 1.65e+03    -  1.44e-02 1.68e-03h  4
  35 -4.2019737e-02 1.08e-01 8.20e+07  -6.0 1.64e+03    -  6.57e-03 1.92e-03h  5
  36 -4.2002605e-02 1.07e-01 8.19e+07  -6.0 1.61e+03    -  2.22e-02 2.04e-03h  5
  37 -4.1976705e-02 1.07e-01 8.16e+07  -6.0 1.59e+03    -  1.30e-02 2.94e-03h  5
  38 -4.1944572e-02 1.07e-01 8.14e+07  -6.0 1.55e+03    -  2.93e-02 3.23e-03h  5
  39 -4.1921610e-02 1.07e-01 8.12e+07  -6.0 1.50e+03    -  2.53e-02 2.11e-03h  6
iter    objective    inf_pr   inf_du lg(mu)  ||d||  lg(rg) alpha_du alpha_pr  ls
  40 -4.1892420e-02 1.06e-01 8.10e+07  -6.0 1.48e+03    -  4.48e-02 2.54e-03h  6
  41 -4.1851352e-02 1.06e-01 8.07e+07  -6.0 1.44e+03    -  3.18e-02 3.34e-03h  6
  42 -4.1808385e-02 1.06e-01 8.05e+07  -6.0 1.40e+03    -  5.79e-02 3.20e-03h  6
  43 -4.0366211e-02 3.78e-01 7.26e+07  -6.0 1.35e+03    -  4.31e-02 9.78e-02w  1
  44 -3.8714535e-02 3.75e-01 6.76e+07  -6.0 5.24e+02    -  1.11e-01 6.89e-02w  1
  45 -3.8516872e-02 3.73e-01 6.68e+07  -6.0 4.56e+02    -  2.81e-01 1.20e-02w  1
  46 -4.1763317e-02 1.05e-01 8.02e+07  -6.0 4.84e+02    -  4.31e-02 3.06e-03h  5
  47 -4.1713206e-02 1.05e-01 8.00e+07  -6.0 1.31e+03    -  7.03e-02 3.14e-03h  6
  48 -4.1650059e-02 1.05e-01 7.97e+07  -6.0 1.26e+03    -  5.45e-02 3.57e-03h  6
  49 -4.1610751e-02 1.04e-01 7.95e+07  -6.0 1.22e+03    -  1.13e-01 2.05e-03h  7
iter    objective    inf_pr   inf_du lg(mu)  ||d||  lg(rg) alpha_du alpha_pr  ls
  50 -4.1555602e-02 1.04e-01 7.93e+07  -6.0 1.17e+03    -  5.45e-02 2.56e-03h  7
  51 -4.1509925e-02 1.04e-01 7.92e+07  -6.0 1.13e+03    -  1.28e-01 1.99e-03h  7
  52 -4.1464881e-02 1.04e-01 7.90e+07  -6.0 1.14e+03    -  6.05e-02 1.75e-03h  6
  53 -4.1397000e-02 1.03e-01 7.88e+07  -6.0 1.14e+03    -  1.73e-01 2.51e-03h  5
  54 -4.1355566e-02 1.03e-01 7.87e+07  -6.0 1.17e+03    -  6.11e-02 1.35e-03h  5
  55 -4.1318802e-02 1.03e-01 7.86e+07  -6.0 1.19e+03    -  1.59e-01 1.16e-03h  5
  56 -4.0772638e-02 1.01e-01 7.73e+07  -6.0 1.29e+03    -  6.85e-02 1.66e-02w  1
  57 -3.5941828e-02 4.18e+00 6.36e+07  -6.0 1.18e+03    -  1.75e-01 1.77e-01w  1
  58 -3.5220988e-02 4.03e+00 6.09e+07  -6.0 5.72e+02    -  2.84e-01 4.25e-02w  1
  59 -4.1250532e-02 1.03e-01 7.85e+07  -6.0 5.70e+02    -  6.85e-02 2.08e-03h  3
iter    objective    inf_pr   inf_du lg(mu)  ||d||  lg(rg) alpha_du alpha_pr  ls
  60 -4.1181962e-02 1.03e-01 7.83e+07  -6.0 1.33e+03    -  1.48e-01 2.11e-03h  4
  61 -4.1127899e-02 1.03e-01 7.81e+07  -6.0 1.49e+03    -  7.87e-02 1.77e-03h  5
  62 -4.1073670e-02 1.02e-01 7.80e+07  -6.0 1.60e+03    -  1.96e-01 1.87e-03h  6
  63 -4.1037550e-02 1.02e-01 7.79e+07  -6.0 1.99e+03    -  7.66e-02 1.29e-03h  8
  64 -4.1000922e-02 1.02e-01 7.78e+07  -6.0 2.17e+03    -  1.97e-01 1.33e-03h  8
  65 -4.0962816e-02 1.02e-01 7.77e+07  -6.0 2.81e+03    -  8.16e-02 1.48e-03h  8
  66 -4.0943454e-02 1.02e-01 7.76e+07  -6.0 3.09e+03    -  2.35e-01 7.92e-04h  9
  67 -4.0928881e-02 1.02e-01 7.76e+07  -6.0 4.13e+03    -  8.05e-02 7.96e-04h  9
  68 -4.0920011e-02 1.02e-01 7.75e+07  -6.0 4.45e+03    -  2.06e-01 6.15e-04h  9
  69 -4.1316612e-02 2.42e+00 7.15e+07  -6.0 5.29e+03    -  8.67e-02 7.82e-02w  1
iter    objective    inf_pr   inf_du lg(mu)  ||d||  lg(rg) alpha_du alpha_pr  ls
  70 -3.5003405e-02 6.46e+00 5.93e+07  -6.0 3.27e+03    -  5.97e-06 1.70e-01w  1
  71 -2.6506557e-02 9.73e+00 3.72e+07  -6.0 1.53e+03    -  1.93e-01 3.73e-01w  1
  72 -4.0923110e-02 1.02e-01 7.75e+07  -6.0 1.63e+03    -  8.67e-02 6.11e-04h  7
  73 -4.0930799e-02 1.02e-01 7.74e+07  -6.0 5.54e+03    -  9.38e-02 4.81e-04h  8
  74 -4.0952668e-02 1.02e-01 7.74e+07  -6.0 5.77e+03    -  8.45e-02 7.82e-04h  7
  75 -4.0964631e-02 1.02e-01 7.73e+07  -6.0 5.92e+03    -  8.18e-02 3.52e-04h  8
  76 -4.2539847e-02 1.22e+00 7.40e+07  -6.0 6.04e+03    -  8.71e-02 4.31e-02h  1
  77 -4.2521475e-02 1.22e+00 7.40e+07  -6.0 5.37e+03    -  3.24e-04 3.82e-04h 10
  78 -4.2502354e-02 1.22e+00 7.40e+07  -6.0 5.40e+03    -  4.56e-02 3.82e-04h 10
  79 -4.2501255e-02 1.22e+00 7.39e+07  -6.0 5.56e+03    -  1.07e-02 2.30e-05h 14
iter    objective    inf_pr   inf_du lg(mu)  ||d||  lg(rg) alpha_du alpha_pr  ls
  80r-4.2501255e-02 1.22e+00 1.00e+03  -0.1 0.00e+00    -  0.00e+00 3.55e-07R 20
  81r-4.1130130e-02 1.21e+00 6.94e+03  -0.1 4.00e+04    -  2.70e-07 2.42e-06f  1
  82 -4.1130123e-02 1.21e+00 2.28e+06  -6.0 3.23e+02    -  2.76e-02 1.01e-06h  3
  83 -4.0858334e-02 1.20e+00 1.40e+10  -6.0 6.40e+02    -  2.32e-06 1.42e-02h  1
  84 -4.0806198e-02 1.19e+00 1.39e+10  -6.0 5.67e+02    -  3.49e-02 4.71e-03h  3
  85 -4.0772717e-02 1.19e+00 1.39e+10  -6.0 5.68e+02    -  3.01e-02 3.01e-03h  4
  86 -4.0770003e-02 1.19e+00 1.39e+10  -6.0 5.74e+02    -  4.95e-02 2.53e-04h  8
  87 -4.0769515e-02 1.19e+00 1.39e+10  -6.0 5.88e+02    -  3.75e-02 4.80e-05h 11
  88 -4.0769390e-02 1.19e+00 1.39e+10  -6.0 5.92e+02    -  8.70e-02 1.22e-05h 13
  89 -4.0009892e-02 1.10e+00 1.29e+10  -6.0 5.96e+02    -  2.85e-02 7.19e-02h  1
iter    objective    inf_pr   inf_du lg(mu)  ||d||  lg(rg) alpha_du alpha_pr  ls
  90 -3.9016938e-02 1.03e+00 1.21e+10  -6.0 4.20e+02    -  1.37e-01 6.49e-02h  1
  91 -3.7754748e-02 9.62e-01 1.13e+10  -6.0 3.49e+02    -  2.19e-01 6.66e-02h  1
  92 -3.7754704e-02 9.62e-01 1.13e+10  -6.0 3.73e+02    -  3.65e-01 1.22e-05h  1
  93 -3.7127621e-02 8.45e-01 9.89e+09  -6.0 4.14e+02    -  2.66e-01 1.21e-01h  1
  94 -3.7720586e-02 8.44e-01 9.88e+09  -6.0 7.40e+03  -4.1 7.96e-04 1.28e-03h  2
  95 -3.7566528e-02 9.73e-01 9.31e+09  -6.0 3.48e+02    -  2.39e-01 5.73e-02h  2
  96 -3.7271824e-02 1.24e+00 8.78e+09  -6.0 3.62e+02    -  3.41e-01 5.71e-02h  3
  97 -3.6740625e-02 1.36e+00 8.31e+09  -6.0 3.48e+02  -4.5 2.28e-01 5.37e-02h  2
  98 -3.6805277e-02 1.36e+00 8.18e+09  -6.0 2.33e+02  -3.2 3.37e-02 1.51e-02h  1
  99 -3.6256419e-02 1.76e+00 7.41e+09  -6.0 1.81e+02  -3.7 5.05e-01 9.47e-02h  2
iter    objective    inf_pr   inf_du lg(mu)  ||d||  lg(rg) alpha_du alpha_pr  ls
 100 -3.5694532e-02 2.38e+00 6.47e+09  -6.0 1.21e+02  -3.3 3.17e-01 1.27e-01h  1
 101 -3.5694618e-02 2.38e+00 6.47e+09  -6.0 1.44e+02  -2.8 2.67e-02 1.10e-05h  1
 102 -3.5279177e-02 3.96e+00 4.97e+09  -6.0 1.16e+02  -3.3 1.33e-06 2.32e-01H  1
 103 -3.5278820e-02 3.96e+00 4.97e+09  -6.0 1.30e+02  -2.9 9.22e-05 7.18e-05h  1
 104 -3.4817316e-02 3.88e+00 4.78e+09  -6.0 2.18e+02  -3.4 1.75e-02 3.77e-02h  1
 105r-3.4817316e-02 3.88e+00 1.00e+03   0.1 0.00e+00  -3.8 0.00e+00 1.15e-08R  2
 106r-3.4777186e-02 3.88e+00 1.00e+03   0.1 3.48e+06    -  1.76e-07 2.02e-07f  1
 107r-3.4733618e-02 3.86e+00 1.00e+03   0.1 8.35e+03    -  5.48e-06 4.70e-06f  1
 108 -3.4733547e-02 3.86e+00 9.86e+02  -6.0 1.01e+02    -  5.73e-04 8.09e-05h  1
 109 -3.4733340e-02 3.86e+00 3.83e+03  -6.0 1.11e+02    -  8.19e-05 2.85e-04h  1
iter    objective    inf_pr   inf_du lg(mu)  ||d||  lg(rg) alpha_du alpha_pr  ls
 110 -3.4733174e-02 3.86e+00 2.52e+04  -6.0 1.57e+02    -  3.66e-02 1.28e-04h  1
 111 -3.4682255e-02 3.60e+00 4.12e+04  -6.0 1.12e+02    -  5.00e-04 7.23e-02h  1
 112 -3.4664914e-02 3.35e+00 3.83e+04  -6.0 1.15e+02    -  1.85e-01 7.22e-02h  1
 113 -3.4740043e-02 2.88e+00 3.26e+04  -6.0 1.24e+02    -  2.30e-01 1.49e-01h  1
 114 -3.5248389e-02 1.55e+00 1.50e+04  -6.0 1.13e+02    -  5.78e-01 5.39e-01h  1
 115 -3.7436841e-02 4.35e-01 3.57e+03  -6.0 5.14e+01    -  3.84e-01 7.68e-01h  1
 116 -3.8087330e-02 9.21e-02 1.84e+03  -6.0 9.89e+00    -  5.68e-01 7.81e-01h  1
 117 -3.8237007e-02 7.21e-03 1.62e+03  -6.0 4.05e+00    -  6.89e-01 1.00e+00h  1
 118 -3.8322290e-02 8.32e-03 1.35e+03  -6.0 6.21e+00    -  4.76e-01 1.00e+00h  1
 119 -3.8603033e-02 2.39e-03 1.30e+02  -6.0 6.09e+00    -  7.86e-01 1.00e+00h  1
iter    objective    inf_pr   inf_du lg(mu)  ||d||  lg(rg) alpha_du alpha_pr  ls
 120 -3.9834302e-02 8.38e-02 2.22e+02  -6.0 2.36e+01    -  4.96e-01 1.00e+00h  1
 121 -4.7057922e-02 1.05e-01 1.51e+02  -6.0 6.74e+01    -  3.74e-01 1.00e+00H  1
 122 -6.1414203e-02 1.28e+00 2.97e+02  -6.0 2.21e+02    -  9.62e-02 1.00e+00h  1
 123 -6.5913528e-02 1.21e+00 2.30e+02  -6.0 4.01e+02    -  2.45e-01 1.48e-01h  1
 124 -6.5891396e-02 1.18e+00 2.27e+02  -6.0 1.28e+01  -4.3 1.25e-04 2.68e-02h  1
 125 -6.5887660e-02 1.08e+00 2.10e+02  -6.0 1.45e+01  -4.8 1.10e-01 8.82e-02h  1
 126 -6.9268983e-02 1.08e+00 2.07e+02  -6.0 3.66e+03    -  1.48e-02 1.39e-02h  1
 127 -7.0158338e-02 1.00e+00 1.78e+02  -6.0 1.21e+02    -  2.16e-01 8.87e-02h  1
 128 -7.0829653e-02 9.49e-01 1.49e+02  -6.0 1.35e+02    -  2.90e-01 6.14e-02h  1
 129 -7.6481312e-02 2.73e+00 8.29e+01  -6.0 1.90e+02    -  5.01e-01 4.15e-01h  1
iter    objective    inf_pr   inf_du lg(mu)  ||d||  lg(rg) alpha_du alpha_pr  ls
 130 -7.9569241e-02 3.79e+00 7.26e+01  -6.0 1.34e+03    -  1.51e-01 8.74e-02h  1
 131 -7.9578840e-02 3.78e+00 7.01e+01  -6.0 3.38e+02    -  1.54e-01 4.37e-04h  1
 132 -8.3821850e-02 6.09e+00 5.83e+01  -6.0 3.99e+02    -  9.34e-02 1.96e-01f  1
 133 -8.5257888e-02 6.04e+00 5.16e+01  -6.0 1.11e+03    -  4.45e-01 6.17e-02h  1
 134 -9.2195109e-02 1.33e+01 2.83e+02  -6.0 8.48e+02    -  3.08e-01 2.63e-01h  1
 135 -9.2716227e-02 1.27e+01 2.71e+02  -6.0 5.88e+02    -  2.20e-01 4.53e-02h  1
 136 -9.5499413e-02 8.95e+00 1.86e+02  -6.0 4.68e+02    -  1.69e-01 2.96e-01h  1
 137 -9.7010028e-02 8.84e+00 1.84e+02  -6.0 1.55e+04    -  1.73e-02 1.21e-02h  1
 138 -9.7055051e-02 8.82e+00 1.84e+02  -6.0 7.29e+02  -5.3 1.55e-05 1.54e-03h  1
 139 -9.9580781e-02 7.25e+00 1.51e+02  -6.0 1.14e+03    -  1.42e-01 1.72e-01h  1
iter    objective    inf_pr   inf_du lg(mu)  ||d||  lg(rg) alpha_du alpha_pr  ls
 140 -1.0133362e-01 5.57e+00 1.17e+02  -6.0 7.52e+02    -  1.74e-01 2.19e-01h  1
 141 -1.0170159e-01 5.31e+00 1.11e+02  -6.0 8.96e+02    -  2.75e-02 4.62e-02h  1
 142 -1.0353277e-01 3.41e+00 7.36e+01  -6.0 7.13e+02    -  3.57e-01 3.43e-01h  1
 143 -1.0493079e-01 2.64e+00 5.57e+01  -6.0 9.25e+02    -  2.49e-01 2.64e-01h  1
 144 -1.0600006e-01 2.19e+00 4.63e+01  -6.0 1.16e+03    -  2.97e-01 1.73e-01h  1
 145 -1.0856846e-01 1.47e+01 3.50e+01  -6.0 1.64e+03    -  5.40e-01 5.08e-01h  1
 146 -1.0828767e-01 6.60e+00 1.06e+05  -6.0 1.41e+01  -5.7 1.03e-02 5.50e-01h  1
 147 -1.0813253e-01 1.89e-02 1.33e+03  -6.0 3.74e+00  -6.2 5.70e-01 1.00e+00h  1
 148 -1.0814238e-01 1.75e-02 1.05e+03  -6.0 6.19e+00  -6.7 9.44e-01 7.74e-02h  1
 149 -1.0825142e-01 1.36e-02 5.40e-01  -6.0 1.85e+01  -7.2 1.00e+00 1.00e+00f  1
iter    objective    inf_pr   inf_du lg(mu)  ||d||  lg(rg) alpha_du alpha_pr  ls
 150 -1.0858672e-01 1.67e-01 3.50e+00  -6.0 5.56e+01  -7.7 1.00e+00 1.00e+00h  1
 151 -1.0948057e-01 6.95e-01 7.42e+00  -6.0 1.58e+02  -8.1 8.06e-01 9.43e-01h  1
 152 -1.1035217e-01 8.45e-01 6.44e+01  -6.0 3.92e+02  -8.6 1.00e+00 4.68e-01h  1
 153 -1.1097983e-01 7.76e-01 6.62e+01  -6.0 7.46e+02  -9.1 6.21e-01 1.87e-01h  1
 154 -1.1191796e-01 5.28e-01 3.71e+01  -6.0 2.33e+02  -8.7 1.00e+00 6.20e-01h  1
 155 -1.1306081e-01 2.27e+00 2.88e+01  -6.0 3.63e+02  -8.2 4.90e-01 9.69e-01h  1
 156 -1.1397527e-01 1.48e+00 1.92e+02  -6.0 4.19e+02  -8.7 2.50e-01 6.10e-01h  1
 157 -1.1449500e-01 1.23e+00 2.81e+02  -6.0 9.08e+02  -9.2 4.61e-01 1.89e-01h  1
 158 -1.1569603e-01 1.08e+00 9.12e+00  -6.0 2.26e+02  -8.8 1.00e+00 1.00e+00h  1
 159 -1.1685960e-01 1.13e+01 6.37e+02  -6.0 2.13e+03  -9.2 2.16e-01 3.31e-01h  1
iter    objective    inf_pr   inf_du lg(mu)  ||d||  lg(rg) alpha_du alpha_pr  ls
 160 -1.1843357e-01 5.16e+00 6.22e+03  -6.0 5.16e+02  -8.8 1.78e-01 1.00e+00h  1
 161 -1.1918553e-01 6.85e+00 9.24e+02  -6.0 2.63e+03  -9.3 3.18e-01 1.32e-01h  1
 162 -1.2067582e-01 5.22e+00 6.76e+03  -6.0 5.68e+02  -8.9 1.00e+00 7.85e-01h  1
 163 -1.2344049e-01 1.36e+01 6.17e+06  -6.0 2.26e+03  -9.3 4.23e-03 5.61e-01h  1
 164 -1.2346151e-01 1.35e+01 6.15e+06  -6.0 1.07e+04  -8.9 1.83e-06 3.03e-03H  1
 165 -1.2414974e-01 1.25e+01 5.64e+06  -6.0 7.37e+03  -9.4 7.06e-02 8.19e-02f  1
 166 -1.2597039e-01 2.41e+01 5.32e+06  -6.0 1.39e+04  -9.9 4.79e-03 5.83e-02h  1
 167 -1.2708361e-01 2.69e+01 4.95e+06  -6.0 8.34e+03 -10.4 3.22e-02 6.85e-02h  1
 168 -1.2735847e-01 2.55e+01 4.67e+06  -6.0 8.63e+03 -10.8 1.15e-01 5.58e-02h  1
 169 -1.2740481e-01 2.53e+01 4.63e+06  -6.0 3.08e+03 -10.4 7.78e-02 9.01e-03h  1
iter    objective    inf_pr   inf_du lg(mu)  ||d||  lg(rg) alpha_du alpha_pr  ls
 170 -1.2778913e-01 1.91e+01 3.49e+06  -6.0 2.92e+03  -9.1 1.87e-02 2.48e-01h  1
 171 -1.2782915e-01 1.71e+01 3.12e+06  -6.0 3.84e+02  -6.8 2.37e-02 1.04e-01f  1
 172 -1.2786219e-01 3.93e+00 7.18e+05  -6.0 1.59e+02  -7.3 1.25e-01 7.70e-01h  1
 173 -1.2790189e-01 3.87e+00 7.06e+05  -6.0 3.46e+01  -6.0 2.73e-01 1.61e-02h  1
 174 -1.2791198e-01 2.21e+00 4.03e+05  -6.0 9.77e+00  -6.5 5.10e-01 4.29e-01h  1
 175 -1.2795117e-01 1.88e+00 3.43e+05  -6.0 1.18e+01  -6.9 1.00e+00 1.49e-01h  1
 176 -1.2819891e-01 2.52e-01 3.76e+03  -6.0 2.62e+01  -7.4 8.80e-01 9.88e-01h  1
 177 -1.2859614e-01 3.62e-01 1.93e+03  -6.0 1.02e+02  -7.9 2.44e-01 4.84e-01h  1
 178 -1.2869331e-01 3.22e-01 1.69e+03  -6.0 1.58e+02  -8.4 1.00e+00 1.25e-01h  1
 179 -1.2903923e-01 2.30e-01 1.10e+03  -6.0 2.90e+02  -8.9 1.00e+00 3.51e-01h  1
iter    objective    inf_pr   inf_du lg(mu)  ||d||  lg(rg) alpha_du alpha_pr  ls
 180 -1.2937647e-01 1.81e-01 8.45e+02  -6.0 4.96e+02  -9.3 2.85e-01 2.33e-01h  1
 181 -1.2950404e-01 2.69e-01 7.90e+02  -6.0 1.82e+03  -9.8 1.94e-01 6.42e-02h  1
 182 -1.2961068e-01 2.68e-01 7.67e+02  -6.0 6.55e+03 -10.3 3.23e-01 2.99e-02h  1
 183 -1.3069175e-01 7.95e-01 3.40e+02  -6.0 1.49e+03  -9.9 7.24e-01 5.60e-01h  1
 184 -1.3102542e-01 1.19e+00 3.13e+02  -6.0 1.27e+04 -10.3 1.18e-01 7.88e-02h  1
 185 -1.3127042e-01 2.75e+00 1.71e+03  -6.0 4.69e+02  -9.0 1.22e-02 1.93e-01h  1
 186 -1.3156657e-01 9.95e+00 1.44e+03  -6.0 3.43e+02  -8.6 6.57e-02 2.04e-01h  1
 187 -1.3175873e-01 1.14e+01 1.14e+03  -6.0 4.62e+02  -9.1 1.44e-02 1.13e-01h  1
 188 -1.3212198e-01 8.95e+00 7.29e+02  -6.0 9.90e+02  -9.5 4.09e-01 3.28e-01h  1
 189 -1.3243218e-01 8.13e+00 3.58e+02  -6.0 3.80e+03 -10.0 5.37e-02 1.15e-01h  1
iter    objective    inf_pr   inf_du lg(mu)  ||d||  lg(rg) alpha_du alpha_pr  ls
 190 -1.3375048e-01 2.88e+01 1.95e+03  -6.0 6.89e+03 -10.5 4.56e-02 5.35e-01h  1
 191 -1.3375720e-01 2.84e+01 1.71e+03  -6.0 8.50e+01  -5.5 3.22e-03 1.21e-02h  1
 192 -1.3367777e-01 2.69e+01 5.21e+02  -6.0 7.58e+01  -6.0 7.17e-03 7.57e-02h  1
 193 -1.3368764e-01 2.65e+01 8.03e+02  -6.0 5.23e+01  -6.5 4.67e-02 1.61e-02h  1
 194 -1.3348426e-01 2.64e+01 9.18e+02  -6.0 6.27e+02  -7.0 2.44e-02 4.93e-02h  1
 195 -1.3371642e-01 2.10e+01 9.28e+02  -6.0 4.92e+01  -6.6 1.17e-01 2.20e-01h  1
 196 -1.3405583e-01 1.29e+01 1.83e+03  -6.0 4.65e+01  -7.0 1.98e-01 4.32e-01h  1
 197 -1.3407662e-01 1.23e+01 7.33e+02  -6.0 1.61e+01  -6.6 1.86e-01 4.99e-02h  1
 198 -1.3415371e-01 3.48e+00 3.63e+03  -6.0 5.34e+01  -7.1 1.60e-01 6.08e-01h  1
 199 -1.3447841e-01 3.16e+00 2.00e+03  -6.0 5.32e+01  -7.6 2.78e-01 2.43e-01h  1
iter    objective    inf_pr   inf_du lg(mu)  ||d||  lg(rg) alpha_du alpha_pr  ls
 200 -1.3466282e-01 2.77e+00 1.20e+03  -6.0 2.69e+01  -7.1 2.65e-01 1.66e-01h  1
 201 -1.3506895e-01 5.19e+00 6.96e+03  -6.0 4.19e+01  -6.7 1.51e-01 3.67e-01h  1
 202 -1.3512317e-01 5.07e+00 1.14e+04  -6.0 2.53e+01  -6.3 1.66e-01 3.90e-02h  1
 203 -1.3531038e-01 6.43e+00 2.14e+06  -6.0 1.64e+02  -6.8 2.12e-03 2.56e-01h  1
 204 -1.3535627e-01 4.01e+00 1.14e+06  -6.0 1.10e+01  -6.3 1.20e-01 4.68e-01h  1
 205 -1.3537866e-01 2.93e+00 7.70e+05  -6.0 1.00e+01  -6.8 1.00e+00 3.22e-01h  1
 206 -1.3542509e-01 2.29e+00 5.17e+05  -6.0 2.83e+01  -7.3 1.00e+00 3.28e-01h  1
 207 -1.3545491e-01 2.07e+00 4.68e+05  -6.0 8.15e+01  -7.8 1.00e+00 9.54e-02h  1
 208 -1.3556280e-01 1.80e+00 4.12e+05  -6.0 2.52e+02  -8.2 4.47e-01 1.19e-01h  1
 209 -1.3564327e-01 2.03e+00 3.31e+05  -6.0 3.46e+02  -7.8 5.06e-01 1.96e-01h  1
iter    objective    inf_pr   inf_du lg(mu)  ||d||  lg(rg) alpha_du alpha_pr  ls
 210 -1.3626337e-01 4.62e+00 1.16e+05  -6.0 4.85e+02  -8.3 5.44e-01 6.48e-01h  1
 211 -1.3630987e-01 3.73e+00 6.57e+04  -6.0 2.36e+02  -7.9 3.86e-01 4.36e-01h  2
 212 -1.3632050e-01 3.15e+00 5.31e+04  -6.0 1.34e+02  -7.4 6.17e-01 1.92e-01h  3
 213 -1.3631545e-01 2.88e+00 4.81e+04  -6.0 1.04e+02  -7.0 2.11e-01 9.34e-02h  4
 214 -1.3633034e-01 2.61e+00 4.31e+04  -6.0 9.86e+01  -7.5 4.90e-02 1.04e-01h  2
 215 -1.3632625e-01 2.40e+00 3.96e+04  -6.0 2.18e+01  -5.3 4.95e-03 8.06e-02h  1
 216 -1.3630587e-01 3.15e-01 4.25e+03  -6.0 2.41e+00  -5.7 1.00e+00 8.93e-01h  1
 217 -1.3631254e-01 4.06e-02 4.44e+02  -6.0 5.52e+00  -6.2 1.00e+00 8.96e-01h  1
 218 -1.3635859e-01 9.34e-02 8.88e+01  -6.0 1.70e+01  -6.7 1.99e-01 7.99e-01f  1
 219 -1.3655107e-01 5.58e-01 5.31e+01  -6.0 3.25e+01  -7.2 8.70e-01 1.00e+00f  1
iter    objective    inf_pr   inf_du lg(mu)  ||d||  lg(rg) alpha_du alpha_pr  ls
 220 -1.3664584e-01 6.77e-01 6.03e+01  -6.0 3.00e+02  -7.6 5.69e-02 3.16e-02h  1
 221 -1.3680054e-01 6.37e-01 2.11e+01  -6.0 1.81e+02  -8.1 3.97e-01 5.69e-01h  1
 222 -1.3692217e-01 4.25e-01 3.24e+01  -6.0 5.09e+02  -8.6 1.42e-01 6.15e-02h  1
 223 -1.3712189e-01 7.24e-01 3.16e+01  -6.0 1.19e+03  -9.1 1.44e-01 1.10e-01h  1
 224 -1.3736707e-01 4.54e+00 4.98e+01  -6.0 2.56e+02  -9.6 1.00e+00 1.00e+00h  1
 225 -1.3762427e-01 2.52e+00 1.69e+02  -6.0 2.73e+02  -8.2 4.35e-01 5.08e-01h  1
 226 -1.3771222e-01 2.09e+00 1.09e+03  -6.0 4.99e+02  -8.7 4.81e-01 1.42e-01h  1
 227 -1.3774966e-01 6.87e-01 3.44e+03  -6.0 1.01e+02  -9.2 6.25e-01 7.26e-01h  1
 228 -1.3782718e-01 6.07e-01 2.27e+03  -6.0 2.78e+02  -9.7 3.04e-01 3.41e-01h  1
 229 -1.3786550e-01 2.05e+00 9.55e+02  -6.0 1.03e+03 -10.1 3.12e-01 5.71e-01H  1
iter    objective    inf_pr   inf_du lg(mu)  ||d||  lg(rg) alpha_du alpha_pr  ls
 230 -1.3781784e-01 6.35e-02 5.38e+00  -6.0 4.63e+01  -7.9 9.24e-01 1.00e+00h  1
 231 -1.3780462e-01 1.49e-01 7.90e-01  -6.0 7.10e+01  -8.4 1.00e+00 1.00e+00h  1
 232 -1.3778583e-01 8.25e-01 3.89e+00  -6.0 1.67e+02  -8.9 1.00e+00 1.00e+00h  1
 233 -1.3777681e-01 8.34e-01 1.26e+01  -6.0 4.79e+02  -9.3 7.52e-01 1.34e-01h  1
 234 -1.3772837e-01 1.07e+00 6.02e+00  -6.0 2.33e+02  -9.8 1.00e+00 1.00e+00h  1
 235 -1.3773224e-01 1.18e+00 6.59e+00  -6.0 4.53e+02  -9.4 2.91e-01 2.62e-01h  1
 236 -1.3774700e-01 1.96e+00 8.72e+01  -6.0 4.16e+02  -9.9 9.96e-01 7.69e-01h  1
 237 -1.3788461e-01 7.02e+00 3.72e+02  -6.0 1.40e+03  -9.4 1.41e-01 4.09e-01h  2
 238 -1.3778897e-01 1.10e+00 8.46e+02  -6.0 1.99e+02  -8.1 2.92e-01 1.00e+00h  1
 239 -1.3788925e-01 6.13e-01 2.35e+01  -6.0 1.51e+02  -8.6 4.07e-01 1.00e+00h  1
iter    objective    inf_pr   inf_du lg(mu)  ||d||  lg(rg) alpha_du alpha_pr  ls
 240 -1.3791960e-01 1.16e+00 2.65e+01  -6.0 3.32e+02  -9.1 3.76e-01 5.45e-01h  1
 241 -1.3784095e-01 6.58e-01 4.40e+03  -6.0 1.60e+02  -9.5 7.19e-01 1.00e+00H  1
 242 -1.3789976e-01 1.24e-01 2.76e+01  -6.0 6.74e+01  -8.2 1.00e+00 1.00e+00h  1
 243 -1.3789550e-01 4.23e-01 1.32e+01  -6.0 1.26e+02  -8.7 1.00e+00 1.00e+00h  1
 244 -1.3783325e-01 3.78e-01 2.50e+00  -6.0 1.11e+02  -9.2 1.00e+00 1.00e+00h  1
 245 -1.3778731e-01 1.68e-01 6.65e-01  -6.0 1.16e+02  -9.6 1.00e+00 1.00e+00h  1
 246 -1.3777899e-01 1.91e+00 9.80e-01  -6.0 3.35e+02 -10.1 1.00e+00 1.00e+00h  1
 247 -1.3778243e-01 2.04e+00 4.16e+01  -6.0 2.69e+03 -10.6 3.07e-01 9.64e-02h  1
 248 -1.3778773e-01 2.29e+00 3.74e+01  -6.0 4.91e+02 -10.2 1.01e-03 5.16e-02H  1
 249 -1.3781682e-01 4.16e+01 5.22e+01  -6.0 3.65e+03 -10.6 6.18e-03 5.42e-01H  1
iter    objective    inf_pr   inf_du lg(mu)  ||d||  lg(rg) alpha_du alpha_pr  ls
 250 -1.3778713e-01 9.28e+00 2.42e+01  -6.0 1.95e+03    -  6.49e-01 1.00e+00H  1
 251 -1.3775640e-01 1.04e+01 3.04e+01  -6.0 8.47e+02 -10.2 5.25e-01 1.00e+00h  1
 252 -1.3775400e-01 8.20e+00 1.85e+01  -6.0 4.13e+02 -10.7 1.00e+00 2.19e-01h  1
 253 -1.3773050e-01 6.11e+00 9.06e+00  -6.0 7.09e+02    -  2.75e-01 5.80e-01h  1
 254 -1.3773183e-01 2.22e-01 2.84e+00  -6.0 1.10e+02    -  7.12e-01 1.00e+00h  1
 255 -1.3773151e-01 2.11e-04 3.35e-03  -6.0 3.69e+00  -9.4 1.00e+00 1.00e+00h  1
 256 -1.3773112e-01 6.29e-03 6.82e-04  -6.0 1.38e+01    -  1.00e+00 1.00e+00h  1
 257 -1.3773116e-01 5.33e-04 3.83e-05  -6.0 3.45e+00    -  1.00e+00 1.00e+00h  1
 258 -1.3773116e-01 4.76e-08 1.61e-09  -6.0 3.13e-02    -  1.00e+00 1.00e+00h  1
 259 -1.3824018e-01 6.78e-01 1.28e+01  -7.5 2.62e+03    -  2.17e-01 2.07e-01f  1
iter    objective    inf_pr   inf_du lg(mu)  ||d||  lg(rg) alpha_du alpha_pr  ls
 260 -1.3861855e-01 1.10e+00 1.64e+01  -7.5 2.52e+03    -  2.15e-01 2.15e-01h  1
 261 -1.3878630e-01 1.09e+00 3.77e+01  -7.5 2.25e+03    -  3.07e-01 1.34e-01h  1
 262 -1.3889813e-01 9.77e-01 2.76e+01  -7.5 4.65e+02  -9.8 9.99e-02 1.10e-01h  1
 263 -1.3902520e-01 9.55e-01 3.90e+01  -7.5 2.32e+03  -9.4 9.20e-03 2.30e-02h  1
 264 -1.3910583e-01 9.06e-01 5.89e+01  -7.5 1.49e+03  -9.9 7.20e-02 4.98e-02h  1
 265 -1.3919564e-01 1.12e+01 4.40e+01  -7.5 7.90e+03    -  3.93e-02 1.04e-01h  1
 266 -1.3922873e-01 1.06e+01 5.41e+01  -7.5 8.87e+02 -10.4 3.94e-05 5.92e-02h  1
 267 -1.3954664e-01 4.41e+00 1.26e+02  -7.5 3.38e+02  -9.9 9.50e-02 6.66e-01h  1
 268 -1.3957073e-01 4.48e+00 1.09e+02  -7.5 2.22e+03    -  2.90e-01 6.69e-02h  1
 269 -1.3964862e-01 5.71e+01 9.85e+01  -7.5 1.62e+04    -  3.34e-02 1.11e-01h  1
iter    objective    inf_pr   inf_du lg(mu)  ||d||  lg(rg) alpha_du alpha_pr  ls
 270 -1.3968205e-01 5.07e+01 9.59e+01  -7.5 1.92e+03    -  8.33e-04 1.18e-01h  1
 271 -1.3973593e-01 4.07e+01 7.66e+01  -7.5 2.25e+03    -  1.30e-01 1.97e-01h  1
 272 -1.3975163e-01 3.74e+01 7.05e+01  -7.5 1.43e+03    -  5.09e-02 8.07e-02h  1
 273 -1.3979453e-01 3.44e+01 6.44e+01  -7.5 1.60e+03  -9.5 3.65e-01 8.22e-02h  1
 274 -1.3984348e-01 2.43e+01 4.55e+01  -7.5 1.39e+03    -  2.28e-01 2.92e-01h  1
 275 -1.3995974e-01 8.42e-01 4.22e+01  -7.5 1.14e+02 -10.0 8.52e-01 1.00e+00h  1
 276 -1.4005695e-01 3.22e+00 2.06e+01  -7.5 9.63e+02    -  5.25e-01 8.01e-01h  1
 277 -1.4005796e-01 3.21e+00 2.07e+01  -7.5 4.79e+03 -10.5 4.31e-04 3.09e-03h  1
 278 -1.4007526e-01 2.66e+00 3.52e+01  -7.5 1.03e+03    -  2.18e-03 1.78e-01f  1
 279 -1.4011648e-01 2.62e+00 8.83e+01  -7.5 2.02e+02    -  4.66e-02 4.73e-01h  1
iter    objective    inf_pr   inf_du lg(mu)  ||d||  lg(rg) alpha_du alpha_pr  ls
 280 -1.4012310e-01 2.78e+00 8.79e+01  -7.5 2.44e+03 -10.0 1.99e-04 1.17e-02h  1
 281 -1.4013247e-01 2.55e+00 1.02e+02  -7.5 4.47e+02    -  8.82e-03 8.23e-02h  1
 282 -1.4013812e-01 2.35e+00 1.02e+02  -7.5 1.94e+03    -  4.77e-02 7.35e-02h  1
 283 -1.4014919e-01 1.97e+00 1.13e+02  -7.5 7.23e+02    -  7.02e-02 1.46e-01h  1
 284 -1.4021582e-01 1.41e+00 1.20e+02  -7.5 3.42e+02    -  6.35e-01 9.03e-01h  1
 285 -1.4029678e-01 2.22e+00 1.61e+02  -7.5 5.00e+02    -  6.63e-01 8.05e-01h  1
 286 -1.4031903e-01 1.82e+00 5.40e+02  -7.5 3.79e+02    -  4.99e-01 2.08e-01h  1
 287 -1.4035268e-01 1.70e+00 3.50e+02  -7.5 6.12e+02    -  3.09e-01 3.17e-01h  1
 288 -1.4037846e-01 4.40e+00 9.98e+01  -7.5 2.22e+03    -  1.80e-01 2.26e-01h  1
 289 -1.4042635e-01 5.19e+01 1.38e+03  -7.5 5.22e+03    -  1.15e-01 3.83e-01h  1
iter    objective    inf_pr   inf_du lg(mu)  ||d||  lg(rg) alpha_du alpha_pr  ls
 290 -1.4042752e-01 5.20e+01 2.14e+03  -7.5 2.59e+04    -  6.96e-02 9.46e-03h  1
 291 -1.4043070e-01 5.09e+01 3.72e+03  -7.5 3.43e+03    -  4.44e-02 2.16e-02h  1
 292 -1.4046245e-01 2.70e+01 2.27e+03  -7.5 1.74e+03    -  4.80e-01 6.85e-01h  1
 293 -1.4045868e-01 3.04e+01 3.33e+03  -7.5 7.79e+03    -  5.89e-03 9.00e-02h  1
 294 -1.4045971e-01 2.98e+01 3.26e+03  -7.5 2.20e+03  -9.6 1.85e-01 1.87e-02h  1
 295 -1.4045980e-01 2.98e+01 3.26e+03  -7.5 6.48e+02 -10.1 2.86e-01 2.04e-03h  1
 296 -1.4047508e-01 1.99e+01 2.51e+03  -7.5 1.76e+03    -  7.60e-01 3.37e-01h  1
 297 -1.4047510e-01 1.99e+01 2.51e+03  -7.5 5.12e+02  -8.8 6.58e-03 8.55e-05h  1
 298 -1.4048971e-01 1.94e+01 1.50e+03  -7.5 2.05e+03    -  1.96e-01 3.94e-01f  1
 299 -1.4049426e-01 1.83e+01 1.38e+03  -7.5 2.05e+03    -  3.60e-02 7.87e-02h  1
iter    objective    inf_pr   inf_du lg(mu)  ||d||  lg(rg) alpha_du alpha_pr  ls
 300 -1.4053526e-01 6.84e+01 6.90e+02  -7.5 2.18e+03    -  2.58e-01 1.00e+00h  1
 301 -1.4054462e-01 6.00e+01 5.68e+02  -7.5 2.77e+03    -  3.63e-02 1.86e-01h  1
 302 -1.4054251e-01 4.46e+01 1.30e+03  -7.5 8.16e+02    -  1.05e-01 2.68e-01h  1
 303 -1.4055671e-01 4.99e+01 9.42e+02  -7.5 7.46e+03    -  1.48e-01 1.06e-01h  1
 304 -1.4056313e-01 4.32e+01 7.82e+02  -7.5 1.81e+03    -  3.70e-01 1.67e-01h  1
 305 -1.4058904e-01 5.58e+01 4.00e+02  -7.5 1.80e+03    -  9.50e-03 1.00e+00h  1
 306 -1.4058891e-01 5.11e+01 3.66e+02  -7.5 7.01e+00  -7.4 9.23e-03 8.41e-02h  1
 307 -1.4058681e-01 2.64e-02 6.96e+01  -7.5 1.67e+01  -7.9 1.36e-01 1.00e+00h  1
 308 -1.4058827e-01 1.21e-01 6.59e+01  -7.5 1.26e+03    -  3.17e-01 5.75e-02h  1
 309 -1.4059310e-01 1.65e+00 3.13e+01  -7.5 4.12e+02    -  1.00e+00 6.58e-01f  1
iter    objective    inf_pr   inf_du lg(mu)  ||d||  lg(rg) alpha_du alpha_pr  ls
 310 -1.4059939e-01 3.40e+00 1.35e+01  -7.5 7.47e+02    -  2.80e-01 6.92e-01h  1
 311 -1.4059887e-01 3.08e+00 1.22e+01  -7.5 3.61e+02  -8.4 3.16e-02 9.88e-02h  1
 312 -1.4059906e-01 9.41e-04 1.35e-01  -7.5 7.58e+00  -8.9 1.00e+00 1.00e+00h  1
 313 -1.4061132e-01 1.43e+01 5.77e+01  -7.5 1.23e+03    -  1.35e-01 7.18e-01h  1
 314 -1.4061079e-01 4.09e-03 3.63e+00  -7.5 2.89e+01    -  1.08e-01 1.00e+00h  1
 315 -1.4061089e-01 7.13e-04 2.41e-02  -7.5 6.07e+00  -9.3 1.00e+00 1.00e+00h  1
 316 -1.4061956e-01 8.40e+00 3.89e+01  -7.5 6.20e+03    -  1.64e-01 1.07e-01h  1
 317 -1.4061629e-01 1.18e+00 6.43e+00  -7.5 2.51e+02    -  1.00e+00 1.00e+00h  1
 318 -1.4061980e-01 1.38e+00 8.16e+00  -7.5 2.64e+02    -  1.00e+00 1.00e+00h  1
 319 -1.4062006e-01 5.82e-03 4.59e-02  -7.5 1.62e+01    -  1.00e+00 1.00e+00h  1
iter    objective    inf_pr   inf_du lg(mu)  ||d||  lg(rg) alpha_du alpha_pr  ls
 320 -1.4062001e-01 3.02e-04 1.98e-03  -7.5 3.88e+00    -  1.00e+00 1.00e+00h  1
 321 -1.4062001e-01 3.29e-08 6.27e-07  -7.5 4.02e-02    -  1.00e+00 1.00e+00h  1
 322 -1.4062001e-01 1.92e-10 7.94e-11  -7.5 7.71e-04    -  1.00e+00 1.00e+00h  1
 323 -1.4062327e-01 9.23e-02 2.40e+00  -9.0 2.59e+02    -  2.88e-01 3.04e-01h  1
 324 -1.4063018e-01 2.10e+01 7.95e+01  -9.0 1.17e+05    -  2.17e-02 8.78e-03h  1
 325 -1.4063789e-01 2.77e+01 1.19e+02  -9.0 3.62e+03    -  1.86e-01 2.32e-01h  1
 326 -1.4064254e-01 2.74e+01 1.26e+02  -9.0 4.34e+03    -  2.91e-01 1.62e-01h  1
 327 -1.4064966e-01 4.42e+01 1.33e+02  -9.0 3.43e+03    -  3.20e-01 3.66e-01h  1
 328 -1.4065356e-01 4.07e+01 2.54e+01  -9.0 1.55e+03    -  1.00e-02 8.19e-01h  1
 329 -1.4065068e-01 1.55e-01 7.70e+00  -9.0 1.02e+02    -  4.01e-02 1.00e+00h  1
iter    objective    inf_pr   inf_du lg(mu)  ||d||  lg(rg) alpha_du alpha_pr  ls
 330 -1.4065131e-01 8.47e-02 7.37e-01  -9.0 6.42e+01    -  1.00e+00 1.00e+00h  1
 331 -1.4065129e-01 2.12e-02 8.98e-02  -9.0 3.22e+01    -  1.00e+00 1.00e+00h  1
 332 -1.4065129e-01 6.76e-08 1.75e-05  -9.0 3.78e-02    -  1.00e+00 1.00e+00h  1
 333 -1.4065129e-01 2.77e-10 2.60e-12  -9.0 2.81e-05    -  1.00e+00 1.00e+00h  1

Number of Iterations....: 333

                                   (scaled)                 (unscaled)
Objective...............:  -1.4065129089327913e-01   -1.4065129089327913e-01
Dual infeasibility......:   2.5966589989323552e-12    2.5966589989323552e-12
Constraint violation....:   2.7673330977012051e-10    2.7673330977012051e-10
Complementarity.........:   9.0909098743981497e-10    9.0909098743981497e-10
Overall NLP error.......:   9.0909098743981497e-10    9.0909098743981497e-10


Number of objective function evaluations             = 715
Number of objective gradient evaluations             = 330
Number of equality constraint evaluations            = 715
Number of inequality constraint evaluations          = 716
Number of equality constraint Jacobian evaluations   = 341
Number of inequality constraint Jacobian evaluations = 341
Number of Lagrangian Hessian evaluations             = 333
Total CPU secs in IPOPT (w/o function evaluations)   =    138.211
Total CPU secs in NLP function evaluations           =      6.217

EXIT: Optimal Solution Found.
